<?xml version = "1.0" encoding="UTF-8" standalone="yes"?>
<CPLEXSolution version="1.2">
 <header
   problemName="/home/vanessa/Documentos/tcc-auctions/completo/completo2s.lp"
   solutionName="incumbent"
   solutionIndex="-1"
   objectiveValue="589.60799989999998"
   solutionTypeValue="3"
   solutionTypeString="primal"
   solutionStatusValue="101"
   solutionStatusString="integer optimal solution"
   solutionMethodString="mip"
   primalFeasible="1"
   dualFeasible="1"
   MIPNodes="0"
   MIPIterations="46"
   writeLevel="1"/>
 <quality
   epInt="1.0000000000000001e-05"
   epRHS="9.9999999999999995e-07"
   maxIntInfeas="0"
   maxPrimalInfeas="0"
   maxX="1"
   maxSlack="12"/>
 <linearConstraints>
  <constraint name="c1" index="0" slack="0"/>
  <constraint name="c2" index="1" slack="0"/>
  <constraint name="c3" index="2" slack="0"/>
  <constraint name="c4" index="3" slack="0"/>
  <constraint name="c5" index="4" slack="0"/>
  <constraint name="c6" index="5" slack="0"/>
  <constraint name="c7" index="6" slack="0"/>
  <constraint name="c8" index="7" slack="0"/>
  <constraint name="c9" index="8" slack="0"/>
  <constraint name="c10" index="9" slack="0"/>
  <constraint name="c11" index="10" slack="0"/>
  <constraint name="c12" index="11" slack="0"/>
  <constraint name="c13" index="12" slack="0"/>
  <constraint name="c14" index="13" slack="0"/>
  <constraint name="c15" index="14" slack="0"/>
  <constraint name="c16" index="15" slack="0"/>
  <constraint name="c17" index="16" slack="0"/>
  <constraint name="c18" index="17" slack="0"/>
  <constraint name="c19" index="18" slack="0"/>
  <constraint name="c20" index="19" slack="0"/>
  <constraint name="c21" index="20" slack="0"/>
  <constraint name="c22" index="21" slack="0"/>
  <constraint name="c23" index="22" slack="0"/>
  <constraint name="c24" index="23" slack="0"/>
  <constraint name="c25" index="24" slack="0"/>
  <constraint name="c26" index="25" slack="0"/>
  <constraint name="c27" index="26" slack="0"/>
  <constraint name="c28" index="27" slack="0"/>
  <constraint name="c29" index="28" slack="0"/>
  <constraint name="c30" index="29" slack="0"/>
  <constraint name="c31" index="30" slack="0"/>
  <constraint name="c32" index="31" slack="0"/>
  <constraint name="c33" index="32" slack="0"/>
  <constraint name="c34" index="33" slack="0"/>
  <constraint name="c35" index="34" slack="0"/>
  <constraint name="c36" index="35" slack="0"/>
  <constraint name="c37" index="36" slack="0"/>
  <constraint name="c38" index="37" slack="0"/>
  <constraint name="c39" index="38" slack="0"/>
  <constraint name="c40" index="39" slack="0"/>
  <constraint name="c41" index="40" slack="0"/>
  <constraint name="c42" index="41" slack="0"/>
  <constraint name="c43" index="42" slack="0"/>
  <constraint name="c44" index="43" slack="0"/>
  <constraint name="c45" index="44" slack="0"/>
  <constraint name="c46" index="45" slack="0"/>
  <constraint name="c47" index="46" slack="0"/>
  <constraint name="c48" index="47" slack="0"/>
  <constraint name="c49" index="48" slack="0"/>
  <constraint name="c50" index="49" slack="0"/>
  <constraint name="c51" index="50" slack="0"/>
  <constraint name="c52" index="51" slack="0"/>
  <constraint name="c53" index="52" slack="0"/>
  <constraint name="c54" index="53" slack="0"/>
  <constraint name="c55" index="54" slack="0"/>
  <constraint name="c56" index="55" slack="0"/>
  <constraint name="c57" index="56" slack="0"/>
  <constraint name="c58" index="57" slack="0"/>
  <constraint name="c59" index="58" slack="0"/>
  <constraint name="c60" index="59" slack="0"/>
  <constraint name="c61" index="60" slack="0"/>
  <constraint name="c62" index="61" slack="0"/>
  <constraint name="c63" index="62" slack="0"/>
  <constraint name="c64" index="63" slack="0"/>
  <constraint name="c65" index="64" slack="0"/>
  <constraint name="c66" index="65" slack="0"/>
  <constraint name="c67" index="66" slack="0"/>
  <constraint name="c68" index="67" slack="0"/>
  <constraint name="c69" index="68" slack="0"/>
  <constraint name="c70" index="69" slack="0"/>
  <constraint name="c71" index="70" slack="0"/>
  <constraint name="c72" index="71" slack="0"/>
  <constraint name="c73" index="72" slack="0"/>
  <constraint name="c74" index="73" slack="0"/>
  <constraint name="c75" index="74" slack="0"/>
  <constraint name="c76" index="75" slack="0"/>
  <constraint name="c77" index="76" slack="0"/>
  <constraint name="c78" index="77" slack="0"/>
  <constraint name="c79" index="78" slack="0"/>
  <constraint name="c80" index="79" slack="0"/>
  <constraint name="c81" index="80" slack="0"/>
  <constraint name="c82" index="81" slack="0"/>
  <constraint name="c83" index="82" slack="0"/>
  <constraint name="c84" index="83" slack="0"/>
  <constraint name="c85" index="84" slack="0"/>
  <constraint name="c86" index="85" slack="0"/>
  <constraint name="c87" index="86" slack="0"/>
  <constraint name="c88" index="87" slack="0"/>
  <constraint name="c89" index="88" slack="0"/>
  <constraint name="c90" index="89" slack="0"/>
  <constraint name="c91" index="90" slack="0"/>
  <constraint name="c92" index="91" slack="0"/>
  <constraint name="c93" index="92" slack="0"/>
  <constraint name="c94" index="93" slack="0"/>
  <constraint name="c95" index="94" slack="0"/>
  <constraint name="c96" index="95" slack="0"/>
  <constraint name="c97" index="96" slack="0"/>
  <constraint name="c98" index="97" slack="0"/>
  <constraint name="c99" index="98" slack="0"/>
  <constraint name="c100" index="99" slack="-2"/>
  <constraint name="c101" index="100" slack="-3"/>
  <constraint name="c102" index="101" slack="-2"/>
  <constraint name="c103" index="102" slack="-3"/>
  <constraint name="c104" index="103" slack="-2"/>
  <constraint name="c105" index="104" slack="0"/>
  <constraint name="c106" index="105" slack="-3"/>
  <constraint name="c107" index="106" slack="-4"/>
  <constraint name="c108" index="107" slack="-3"/>
  <constraint name="c109" index="108" slack="-1"/>
  <constraint name="c110" index="109" slack="-3"/>
  <constraint name="c111" index="110" slack="-1"/>
  <constraint name="c112" index="111" slack="-1"/>
  <constraint name="c113" index="112" slack="-4"/>
  <constraint name="c114" index="113" slack="-3"/>
  <constraint name="c115" index="114" slack="-3"/>
  <constraint name="c116" index="115" slack="-4"/>
  <constraint name="c117" index="116" slack="-2"/>
  <constraint name="c118" index="117" slack="-4"/>
  <constraint name="c119" index="118" slack="-3"/>
  <constraint name="c120" index="119" slack="-2"/>
  <constraint name="c121" index="120" slack="-5"/>
  <constraint name="c122" index="121" slack="-3"/>
  <constraint name="c123" index="122" slack="-1"/>
  <constraint name="c124" index="123" slack="-4"/>
  <constraint name="c125" index="124" slack="-4"/>
  <constraint name="c126" index="125" slack="-2"/>
  <constraint name="c127" index="126" slack="-9"/>
  <constraint name="c128" index="127" slack="-6"/>
  <constraint name="c129" index="128" slack="-12"/>
  <constraint name="c130" index="129" slack="-8"/>
  <constraint name="c131" index="130" slack="-12"/>
  <constraint name="c132" index="131" slack="-12"/>
  <constraint name="c133" index="132" slack="-12"/>
  <constraint name="c134" index="133" slack="-11"/>
  <constraint name="c135" index="134" slack="-3"/>
  <constraint name="c136" index="135" slack="-3"/>
  <constraint name="c137" index="136" slack="-7"/>
  <constraint name="c138" index="137" slack="-2"/>
  <constraint name="c139" index="138" slack="-10"/>
  <constraint name="c140" index="139" slack="-7"/>
  <constraint name="c141" index="140" slack="-7"/>
  <constraint name="c142" index="141" slack="-11"/>
  <constraint name="c143" index="142" slack="0"/>
  <constraint name="c144" index="143" slack="-12"/>
  <constraint name="c145" index="144" slack="-8"/>
  <constraint name="c146" index="145" slack="-2"/>
  <constraint name="c147" index="146" slack="-10"/>
  <constraint name="c148" index="147" slack="-11"/>
  <constraint name="c149" index="148" slack="-4"/>
  <constraint name="c150" index="149" slack="0"/>
  <constraint name="c151" index="150" slack="0"/>
  <constraint name="c152" index="151" slack="10"/>
  <constraint name="c153" index="152" slack="3"/>
  <constraint name="c154" index="153" slack="6"/>
  <constraint name="c155" index="154" slack="0"/>
  <constraint name="c156" index="155" slack="4"/>
  <constraint name="c157" index="156" slack="0"/>
  <constraint name="c158" index="157" slack="0"/>
  <constraint name="c159" index="158" slack="0"/>
  <constraint name="c160" index="159" slack="1"/>
  <constraint name="c161" index="160" slack="9"/>
  <constraint name="c162" index="161" slack="9"/>
  <constraint name="c163" index="162" slack="5"/>
  <constraint name="c164" index="163" slack="10"/>
  <constraint name="c165" index="164" slack="2"/>
  <constraint name="c166" index="165" slack="5"/>
  <constraint name="c167" index="166" slack="5"/>
  <constraint name="c168" index="167" slack="1"/>
  <constraint name="c169" index="168" slack="12"/>
  <constraint name="c170" index="169" slack="0"/>
  <constraint name="c171" index="170" slack="4"/>
  <constraint name="c172" index="171" slack="10"/>
  <constraint name="c173" index="172" slack="2"/>
  <constraint name="c174" index="173" slack="1"/>
  <constraint name="c175" index="174" slack="8"/>
  <constraint name="c176" index="175" slack="4"/>
  <constraint name="c177" index="176" slack="4"/>
 </linearConstraints>
 <variables>
  <variable name="P26T98" index="0" value="1"/>
  <variable name="P21T81" index="1" value="0"/>
  <variable name="P21T80" index="2" value="0"/>
  <variable name="P2T28" index="3" value="0"/>
  <variable name="P2T25" index="4" value="0"/>
  <variable name="P7T42" index="5" value="0"/>
  <variable name="P10T67" index="6" value="0"/>
  <variable name="P15T79" index="7" value="0"/>
  <variable name="P17T22" index="8" value="1"/>
  <variable name="P15T78" index="9" value="0"/>
  <variable name="P15T87" index="10" value="0"/>
  <variable name="P6T79" index="11" value="1"/>
  <variable name="P15T85" index="12" value="1"/>
  <variable name="P17T15" index="13" value="1"/>
  <variable name="P10T70" index="14" value="0"/>
  <variable name="P16T50" index="15" value="1"/>
  <variable name="P22T49" index="16" value="0"/>
  <variable name="P15T81" index="17" value="0"/>
  <variable name="P22T40" index="18" value="1"/>
  <variable name="P22T43" index="19" value="1"/>
  <variable name="P2T19" index="20" value="0"/>
  <variable name="P8T20" index="21" value="0"/>
  <variable name="P9T8" index="22" value="0"/>
  <variable name="P1T48" index="23" value="1"/>
  <variable name="P7T53" index="24" value="0"/>
  <variable name="P2T11" index="25" value="0"/>
  <variable name="P7T54" index="26" value="0"/>
  <variable name="P8T25" index="27" value="1"/>
  <variable name="P12T11" index="28" value="0"/>
  <variable name="P15T89" index="29" value="1"/>
  <variable name="P9T6" index="30" value="0"/>
  <variable name="P7T56" index="31" value="0"/>
  <variable name="P17T34" index="32" value="0"/>
  <variable name="P8T28" index="33" value="0"/>
  <variable name="P17T24" index="34" value="0"/>
  <variable name="P7T61T46" index="35" value="1"/>
  <variable name="P8T26" index="36" value="0"/>
  <variable name="P10T82" index="37" value="0"/>
  <variable name="P17T26" index="38" value="1"/>
  <variable name="P23T28" index="39" value="0"/>
  <variable name="P21T83" index="40" value="1"/>
  <variable name="P22T53" index="41" value="0"/>
  <variable name="P11T19" index="42" value="1"/>
  <variable name="P26T76" index="43" value="1"/>
  <variable name="P10T48" index="44" value="-0"/>
  <variable name="P11T18" index="45" value="1"/>
  <variable name="P10T43" index="46" value="0"/>
  <variable name="P6T98" index="47" value="-0"/>
  <variable name="P8T35" index="48" value="1"/>
  <variable name="P15T57" index="49" value="0"/>
  <variable name="P10T42" index="50" value="0"/>
  <variable name="P25T1" index="51" value="1"/>
  <variable name="P14T97" index="52" value="0"/>
  <variable name="P14T94" index="53" value="0"/>
  <variable name="P8T38" index="54" value="0"/>
  <variable name="P15T60" index="55" value="0"/>
  <variable name="P21T53" index="56" value="0"/>
  <variable name="P20T87" index="57" value="0"/>
  <variable name="P14T9" index="58" value="1"/>
  <variable name="P9T10" index="59" value="0"/>
  <variable name="P14T7" index="60" value="0"/>
  <variable name="P7T75" index="61" value="0"/>
  <variable name="P10T51" index="62" value="0"/>
  <variable name="P8T5" index="63" value="1"/>
  <variable name="P17T10" index="64" value="1"/>
  <variable name="P14T2" index="65" value="1"/>
  <variable name="P14T98" index="66" value="-0"/>
  <variable name="P15T66" index="67" value="1"/>
  <variable name="P16T34" index="68" value="1"/>
  <variable name="P15T76" index="69" value="-0"/>
  <variable name="P16T44" index="70" value="1"/>
  <variable name="P15T75" index="71" value="0"/>
  <variable name="P9T17" index="72" value="0"/>
  <variable name="P15T71" index="73" value="-0"/>
  <variable name="P10T73T90" index="74" value="1"/>
  <variable name="P3T39" index="75" value="1"/>
  <variable name="P4T92" index="76" value="0"/>
  <variable name="P5T60" index="77" value="0"/>
  <variable name="P11T79" index="78" value="-0"/>
  <variable name="P5T62" index="79" value="0"/>
  <variable name="P4T95" index="80" value="-0"/>
  <variable name="P12T43" index="81" value="0"/>
  <variable name="P4T96" index="82" value="0"/>
  <variable name="P12T41" index="83" value="0"/>
  <variable name="P2T64" index="84" value="1"/>
  <variable name="P2T62" index="85" value="1"/>
  <variable name="P2T60" index="86" value="1"/>
  <variable name="P23T58" index="87" value="1"/>
  <variable name="P23T53" index="88" value="1"/>
  <variable name="P13T29" index="89" value="0"/>
  <variable name="P17T72" index="90" value="1"/>
  <variable name="P3T27" index="91" value="1"/>
  <variable name="P19T0" index="92" value="0"/>
  <variable name="P5T74" index="93" value="1"/>
  <variable name="P7T11" index="94" value="0"/>
  <variable name="P7T6" index="95" value="0"/>
  <variable name="P18T43" index="96" value="0"/>
  <variable name="P3T23" index="97" value="0"/>
  <variable name="P7T5" index="98" value="0"/>
  <variable name="P17T77" index="99" value="0"/>
  <variable name="P19T14" index="100" value="0"/>
  <variable name="P1T86" index="101" value="-0"/>
  <variable name="P11T86" index="102" value="-0"/>
  <variable name="P13T21" index="103" value="1"/>
  <variable name="P19T13" index="104" value="1"/>
  <variable name="P7T7" index="105" value="1"/>
  <variable name="P12T53" index="106" value="0"/>
  <variable name="P2T52" index="107" value="0"/>
  <variable name="P7T19" index="108" value="-0"/>
  <variable name="P23T63" index="109" value="1"/>
  <variable name="P24T31" index="110" value="1"/>
  <variable name="P22T97" index="111" value="1"/>
  <variable name="P3T19" index="112" value="0"/>
  <variable name="P3T18" index="113" value="-0"/>
  <variable name="P5T81" index="114" value="0"/>
  <variable name="P10T87" index="115" value="0"/>
  <variable name="P7T20" index="116" value="1"/>
  <variable name="P1T79" index="117" value="0"/>
  <variable name="P10T89" index="118" value="0"/>
  <variable name="P1T76" index="119" value="-0"/>
  <variable name="P2T45" index="120" value="1"/>
  <variable name="P11T51" index="121" value="1"/>
  <variable name="P18T11" index="122" value="0"/>
  <variable name="P16T68" index="123" value="1"/>
  <variable name="P17T45" index="124" value="0"/>
  <variable name="P5T89" index="125" value="0"/>
  <variable name="P7T28" index="126" value="0"/>
  <variable name="P10T92" index="127" value="1"/>
  <variable name="P7T27" index="128" value="0"/>
  <variable name="P23T38" index="129" value="0"/>
  <variable name="P22T68" index="130" value="0"/>
  <variable name="P21T94" index="131" value="1"/>
  <variable name="P22T69" index="132" value="1"/>
  <variable name="P5T91" index="133" value="1"/>
  <variable name="P5T95" index="134" value="-0"/>
  <variable name="P1T65" index="135" value="1"/>
  <variable name="P2T33" index="136" value="0"/>
  <variable name="P18T14" index="137" value="0"/>
  <variable name="P11T71" index="138" value="1"/>
  <variable name="P12T0" index="139" value="1"/>
  <variable name="P22T78" index="140" value="1"/>
  <variable name="P8T91" index="141" value="0"/>
  <variable name="P9T66" index="142" value="0"/>
  <variable name="P19T43" index="143" value="0"/>
  <variable name="P4T50" index="144" value="0"/>
  <variable name="P8T96" index="145" value="0"/>
  <variable name="P18T77" index="146" value="1"/>
  <variable name="P19T47" index="147" value="1"/>
  <variable name="P9T67" index="148" value="1"/>
  <variable name="P20T6" index="149" value="1"/>
  <variable name="P19T38" index="150" value="0"/>
  <variable name="P12T95" index="151" value="-0"/>
  <variable name="P20T26" index="152" value="0"/>
  <variable name="P20T28" index="153" value="1"/>
  <variable name="P5T1" index="154" value="-0"/>
  <variable name="P9T76" index="155" value="-0"/>
  <variable name="P14T39" index="156" value="0"/>
  <variable name="P14T38" index="157" value="1"/>
  <variable name="P12T98" index="158" value="-0"/>
  <variable name="P4T63" index="159" value="0"/>
  <variable name="P5T31" index="160" value="0"/>
  <variable name="P12T96" index="161" value="1"/>
  <variable name="P2T97" index="162" value="0"/>
  <variable name="P4T66" index="163" value="0"/>
  <variable name="P15T10" index="164" value="0"/>
  <variable name="P19T49" index="165" value="1"/>
  <variable name="P3T62" index="166" value="0"/>
  <variable name="P5T38" index="167" value="0"/>
  <variable name="P5T39" index="168" value="0"/>
  <variable name="P13T70" index="169" value="1"/>
  <variable name="P9T82" index="170" value="1"/>
  <variable name="P4T70" index="171" value="0"/>
  <variable name="P18T52" index="172" value="1"/>
  <variable name="P9T86" index="173" value="-0"/>
  <variable name="P5T40" index="174" value="0"/>
  <variable name="P18T48" index="175" value="-0"/>
  <variable name="P19T18" index="176" value="-0"/>
  <variable name="P4T32T30" index="177" value="1"/>
  <variable name="P24T62" index="178" value="0"/>
  <variable name="P9T94" index="179" value="0"/>
  <variable name="P18T7" index="180" value="0"/>
  <variable name="P18T8" index="181" value="1"/>
  <variable name="P5T50" index="182" value="0"/>
  <variable name="P10T9" index="183" value="0"/>
  <variable name="P4T84" index="184" value="0"/>
  <variable name="P4T9" index="185" value="0"/>
  <variable name="P18T66" index="186" value="0"/>
  <variable name="P10T8" index="187" value="0"/>
  <variable name="P12T77" index="188" value="0"/>
  <variable name="P19T33" index="189" value="0"/>
  <variable name="P4T87" index="190" value="0"/>
  <variable name="P10T6" index="191" value="0"/>
  <variable name="P3T41" index="192" value="1"/>
  <variable name="P13T52" index="193" value="0"/>
  <variable name="P18T59" index="194" value="0"/>
  <variable name="P19T29" index="195" value="1"/>
  <variable name="P6T26" index="196" value="-0"/>
  <variable name="P12T80" index="197" value="0"/>
  <variable name="P24T57" index="198" value="0"/>
  <variable name="P24T56" index="199" value="1"/>
  <variable name="P23T88" index="200" value="1"/>
  <variable name="P25T86" index="201" value="1"/>
  <variable name="P8T50" index="202" value="0"/>
  <variable name="P7T81" index="203" value="1"/>
  <variable name="P19T84" index="204" value="1"/>
  <variable name="P8T54" index="205" value="1"/>
  <variable name="P7T87" index="206" value="0"/>
  <variable name="P1T11" index="207" value="1"/>
  <variable name="P9T24" index="208" value="1"/>
  <variable name="P15T33" index="209" value="0"/>
  <variable name="P14T75" index="210" value="1"/>
  <variable name="P8T59" index="211" value="0"/>
  <variable name="P20T68" index="212" value="0"/>
  <variable name="P15T40" index="213" value="0"/>
  <variable name="P4T15" index="214" value="0"/>
  <variable name="P14T70" index="215" value="0"/>
  <variable name="P4T17" index="216" value="1"/>
  <variable name="P25T95" index="217" value="1"/>
  <variable name="P3T8" index="218" value="0"/>
  <variable name="P20T80" index="219" value="1"/>
  <variable name="P10T39" index="220" value="0"/>
  <variable name="P7T95" index="221" value="-0"/>
  <variable name="P19T96" index="222" value="0"/>
  <variable name="P9T33" index="223" value="1"/>
  <variable name="P15T48" index="224" value="-0"/>
  <variable name="P14T79" index="225" value="0"/>
  <variable name="P14T78" index="226" value="0"/>
  <variable name="P15T3" index="227" value="1"/>
  <variable name="P15T1" index="228" value="-0"/>
  <variable name="P15T54" index="229" value="0"/>
  <variable name="P4T23" index="230" value="1"/>
  <variable name="P15T53" index="231" value="0"/>
  <variable name="P4T24" index="232" value="0"/>
  <variable name="P9T38" index="233" value="0"/>
  <variable name="P15T52" index="234" value="0"/>
  <variable name="P15T50" index="235" value="0"/>
  <variable name="P14T81" index="236" value="0"/>
  <variable name="P21T42" index="237" value="1"/>
  <variable name="P20T71" index="238" value="-0"/>
  <variable name="P22T14" index="239" value="1"/>
  <variable name="P21T44" index="240" value="0"/>
  <variable name="P26T55" index="241" value="1"/>
  <variable name="P24T94" index="242" value="0"/>
  <variable name="P8T75" index="243" value="0"/>
  <variable name="P19T63" index="244" value="0"/>
  <variable name="P9T44" index="245" value="0"/>
  <variable name="P14T48" index="246" value="-0"/>
  <variable name="P3T98" index="247" value="-0"/>
  <variable name="P3T97" index="248" value="0"/>
  <variable name="P4T33" index="249" value="0"/>
  <variable name="P9T49" index="250" value="0"/>
  <variable name="P4T37" index="251" value="1"/>
  <variable name="P21T10" index="252" value="0"/>
  <variable name="P2T8" index="253" value="0"/>
  <variable name="P15T29" index="254" value="0"/>
  <variable name="P8T87" index="255" value="1"/>
  <variable name="P9T55" index="256" value="-0"/>
  <variable name="P14T59" index="257" value="0"/>
  <variable name="P4T40" index="258" value="0"/>
  <variable name="P14T57" index="259" value="1"/>
  <variable name="P9T59" index="260" value="0"/>
  <variable name="P19T77" index="261" value="0"/>
  <variable name="P4T41" index="262" value="0"/>
  <variable name="P14T55" index="263" value="-0"/>
  <variable name="P8T89" index="264" value="0"/>
  <variable name="P9T57" index="265" value="0"/>
  <variable name="P14T54" index="266" value="0"/>
  <variable name="P5T12" index="267" value="1"/>
  <variable name="P3T85" index="268" value="0"/>
  <variable name="P20T59" index="269" value="1"/>
  <variable name="P5T18" index="270" value="-0"/>
  <variable name="P1T4" index="271" value="-0"/>
  <variable name="P2T4" index="272" value="-0"/>
  <variable name="P3T4" index="273" value="-0"/>
  <variable name="P4T4" index="274" value="-0"/>
  <variable name="P5T4" index="275" value="-0"/>
  <variable name="P6T4" index="276" value="-0"/>
  <variable name="P7T4" index="277" value="-0"/>
  <variable name="P8T4" index="278" value="-0"/>
  <variable name="P9T4" index="279" value="-0"/>
  <variable name="P10T4" index="280" value="-0"/>
  <variable name="P11T4" index="281" value="-0"/>
  <variable name="P12T4" index="282" value="-0"/>
  <variable name="P13T4" index="283" value="-0"/>
  <variable name="P14T4" index="284" value="-0"/>
  <variable name="P15T4" index="285" value="-0"/>
  <variable name="P16T4" index="286" value="-0"/>
  <variable name="P17T4" index="287" value="-0"/>
  <variable name="P18T4" index="288" value="-0"/>
  <variable name="P19T4" index="289" value="-0"/>
  <variable name="P20T4" index="290" value="-0"/>
  <variable name="P21T4" index="291" value="-0"/>
  <variable name="P22T4" index="292" value="-0"/>
  <variable name="P23T4" index="293" value="-0"/>
  <variable name="P24T4" index="294" value="-0"/>
  <variable name="P25T4" index="295" value="1"/>
  <variable name="P26T4" index="296" value="0"/>
  <variable name="P1T16" index="297" value="-0"/>
  <variable name="P2T16" index="298" value="-0"/>
  <variable name="P3T16" index="299" value="-0"/>
  <variable name="P4T16" index="300" value="0"/>
  <variable name="P5T16" index="301" value="0"/>
  <variable name="P6T16" index="302" value="-0"/>
  <variable name="P7T16" index="303" value="0"/>
  <variable name="P8T16" index="304" value="-0"/>
  <variable name="P9T16" index="305" value="-0"/>
  <variable name="P10T16" index="306" value="0"/>
  <variable name="P11T16" index="307" value="-0"/>
  <variable name="P12T16" index="308" value="0"/>
  <variable name="P13T16" index="309" value="-0"/>
  <variable name="P14T16" index="310" value="-0"/>
  <variable name="P15T16" index="311" value="-0"/>
  <variable name="P16T16" index="312" value="-0"/>
  <variable name="P17T16" index="313" value="0"/>
  <variable name="P18T16" index="314" value="-0"/>
  <variable name="P19T16" index="315" value="0"/>
  <variable name="P20T16" index="316" value="-0"/>
  <variable name="P21T16" index="317" value="-0"/>
  <variable name="P22T16" index="318" value="-0"/>
  <variable name="P23T16" index="319" value="0"/>
  <variable name="P24T16" index="320" value="-0"/>
  <variable name="P25T16" index="321" value="-0"/>
  <variable name="P26T16" index="322" value="1"/>
  <variable name="P1T36" index="323" value="-0"/>
  <variable name="P2T36" index="324" value="-0"/>
  <variable name="P3T36" index="325" value="-0"/>
  <variable name="P4T36" index="326" value="-0"/>
  <variable name="P5T36" index="327" value="-0"/>
  <variable name="P6T36" index="328" value="-0"/>
  <variable name="P7T36" index="329" value="-0"/>
  <variable name="P8T36" index="330" value="-0"/>
  <variable name="P9T36" index="331" value="-0"/>
  <variable name="P10T36" index="332" value="-0"/>
  <variable name="P11T36" index="333" value="-0"/>
  <variable name="P12T36" index="334" value="-0"/>
  <variable name="P13T36" index="335" value="-0"/>
  <variable name="P14T36" index="336" value="-0"/>
  <variable name="P15T36" index="337" value="-0"/>
  <variable name="P16T36" index="338" value="-0"/>
  <variable name="P17T36" index="339" value="-0"/>
  <variable name="P18T36" index="340" value="-0"/>
  <variable name="P19T36" index="341" value="-0"/>
  <variable name="P20T36" index="342" value="-0"/>
  <variable name="P21T36" index="343" value="-0"/>
  <variable name="P22T36" index="344" value="-0"/>
  <variable name="P23T36" index="345" value="-0"/>
  <variable name="P24T36" index="346" value="-0"/>
  <variable name="P25T36" index="347" value="0"/>
  <variable name="P26T36" index="348" value="1"/>
  <variable name="P1T93" index="349" value="-0"/>
  <variable name="P2T93" index="350" value="-0"/>
  <variable name="P3T93" index="351" value="-0"/>
  <variable name="P4T93" index="352" value="-0"/>
  <variable name="P5T93" index="353" value="-0"/>
  <variable name="P6T93" index="354" value="-0"/>
  <variable name="P7T93" index="355" value="-0"/>
  <variable name="P8T93" index="356" value="-0"/>
  <variable name="P9T93" index="357" value="-0"/>
  <variable name="P10T93" index="358" value="-0"/>
  <variable name="P11T93" index="359" value="-0"/>
  <variable name="P12T93" index="360" value="-0"/>
  <variable name="P13T93" index="361" value="-0"/>
  <variable name="P14T93" index="362" value="-0"/>
  <variable name="P15T93" index="363" value="-0"/>
  <variable name="P16T93" index="364" value="-0"/>
  <variable name="P17T93" index="365" value="-0"/>
  <variable name="P18T93" index="366" value="-0"/>
  <variable name="P19T93" index="367" value="-0"/>
  <variable name="P20T93" index="368" value="-0"/>
  <variable name="P21T93" index="369" value="-0"/>
  <variable name="P22T93" index="370" value="-0"/>
  <variable name="P23T93" index="371" value="-0"/>
  <variable name="P24T93" index="372" value="-0"/>
  <variable name="P25T93" index="373" value="1"/>
  <variable name="P26T93;" index="374" value="0"/>
  <variable name="P26T93" index="375" value="-0"/>
 </variables>
</CPLEXSolution>
